"#MAPSIZE",50,50
"#TILESONLY"
14
0
0
14
0
0
14
0
0
14
0
0
14
0
0
14
0
0
14
0
0
14
0
0
14
0
0
14
0
0
17
0
0
18
0
2
18
0
2
17
0
0
14
0
0
14
0
0
14
0
0
14
0
0
14
0
0
14
0
0
14
0
0
14
0
0
14
0
0
14
0
0
14
0
0
14
0
0
14
0
0
14
0
0
14
0
0
14
0
0
14
0
0
14
0
0
14
0
0
14
0
0
14
0
0
14
0
0
14
0
0
14
0
0
15
0
0
15
0
0
15
0
0
15
0
0
15
0
0
16
0
0
16
0
0
16
0
0
16
0
0
16
0
0
16
0
0
16
0
0
14
0
0
14
0
0
14
0
0
14
0
0
14
0
0
14
0
0
14
0
0
14
0
0
14
0
0
14
0
0
17
0
0
18
0
2
18
0
2
17
0
0
17
0
0
14
0
0
14
0
0
14
0
0
14
0
0
14
0
0
14
0
0
14
0
0
14
0
0
14
0
0
14
0
0
14
0
0
14
0
0
14
0
0
14
0
0
14
0
0
14
0
0
14
0
0
14
0
0
14
0
0
14
0
0
15
0
0
15
0
0
15
0
0
15
0
0
15
0
0
15
0
0
15
0
0
15
0
0
16
0
0
16
0
0
16
0
0
16
0
0
16
0
0
16
0
0
16
0
0
14
0
0
14
0
0
14
0
0
14
0
0
14
0
0
14
0
0
14
0
0
14
0
0
14
0
0
14
0
0
14
0
0
17
0
0
18
0
2
18
0
2
18
0
2
17
0
0
14
0
0
14
0
0
14
0
0
14
0
0
14
0
0
14
0
0
14
0
0
14
0
0
14
0
0
14
0
0
14
0
0
14
0
0
14
0
0
14
0
0
14
0
0
14
0
0
14
0
0
14
0
0
14
0
0
15
0
0
15
0
0
15
0
2
15
0
0
15
0
0
15
0
0
15
0
0
15
0
0
15
0
0
16
0
0
16
0
0
16
0
0
16
0
0
16
0
0
16
0
0
14
0
0
14
0
0
14
0
0
14
0
0
14
0
0
14
0
0
14
0
0
14
0
0
14
0
0
14
0
0
14
0
0
17
0
0
18
0
2
18
0
2
18
0
2
18
0
2
14
0
0
14
0
0
14
0
0
14
0
0
14
0
0
16
0
0
16
0
0
16
0
0
16
0
0
16
0
0
16
0
0
16
0
0
16
0
0
16
0
0
16
0
0
16
0
0
14
0
0
14
0
0
14
0
0
14
0
0
15
0
0
15
0
0
15
0
0
15
0
0
15
0
0
15
0
0
15
0
0
15
0
0
16
0
0
16
0
0
16
0
0
16
0
0
16
0
0
16
0
0
14
0
0
14
0
0
14
0
0
14
0
0
14
0
0
14
0
0
14
0
0
14
0
0
14
0
0
14
0
0
14
0
0
17
0
0
18
0
2
18
0
2
18
0
2
18
0
2
17
0
0
14
0
0
14
0
0
14
0
0
14
0
0
16
0
0
14
0
0
14
0
0
14
0
0
14
0
0
14
0
0
14
0
0
14
0
0
14
0
0
14
0
0
16
0
0
14
0
0
14
0
0
14
0
0
14
0
0
15
0
0
15
0
0
14
0
0
15
0
0
14
0
0
14
0
0
14
0
0
14
0
0
16
0
0
16
0
0
16
0
0
16
0
0
16
0
0
16
0
0
14
0
0
14
0
0
14
0
0
14
0
0
14
0
0
14
0
0
14
0
0
14
0
0
14
0
0
14
0
0
14
0
0
14
0
0
17
0
0
18
0
2
18
0
2
18
0
2
17
0
0
14
0
0
14
0
0
14
0
0
14
0
0
16
0
0
14
0
0
14
0
0
14
0
0
14
0
0
14
0
0
14
0
0
14
0
0
14
0
0
14
0
0
16
0
0
14
0
0
14
0
0
14
0
0
14
0
0
14
0
0
14
0
0
14
0
0
14
0
0
14
0
0
14
0
0
14
0
0
14
0
0
14
0
0
16
0
0
16
0
0
16
0
0
16
0
0
16
0
0
14
0
0
14
0
0
14
0
0
14
0
0
14
0
0
14
0
0
14
0
0
14
0
0
14
0
0
14
0
0
14
0
0
14
0
0
17
0
0
17
0
0
18
0
2
18
0
2
17
0
0
17
0
0
14
0
0
14
0
0
14
0
0
16
0
0
14
0
0
14
0
0
14
0
0
14
0
0
14
0
0
14
0
0
14
0
0
14
0
0
14
0
0
16
0
0
14
0
0
14
0
0
17
0
0
17
0
0
17
0
0
17
0
0
14
0
0
14
0
0
14
0
0
14
0
0
14
0
0
14
0
0
14
0
0
14
0
0
14
0
0
16
0
0
16
0
0
16
0
0
14
0
0
14
0
0
14
0
0
14
0
0
14
0
0
14
0
0
14
0
0
14
0
0
14
0
0
14
0
0
14
0
0
14
0
0
14
0
0
17
0
0
17
0
0
18
0
2
18
0
2
17
0
0
14
0
0
14
0
0
14
0
0
16
0
0
14
0
0
14
0
0
14
0
0
14
0
0
14
0
0
14
0
0
14
1
1
14
1
1
14
1
1
16
0
0
14
1
1
14
1
1
14
1
1
17
0
0
17
0
0
17
0
0
17
0
0
17
0
0
17
0
0
17
0
0
17
0
0
17
0
0
14
0
0
14
0
0
12
0
0
16
0
0
16
0
0
14
0
0
14
0
0
14
0
0
14
0
0
14
0
0
14
0
0
14
0
0
14
0
0
14
0
0
14
0
0
14
0
0
14
0
0
14
0
0
14
0
0
14
0
0
17
0
0
17
0
0
18
0
2
18
0
2
17
0
0
17
0
0
14
0
0
16
0
0
14
0
0
14
0
0
14
0
0
14
0
0
14
0
0
14
0
0
14
1
1
16
0
0
16
0
0
16
0
0
16
0
0
16
0
0
14
1
1
17
0
0
17
0
0
17
0
0
17
0
0
17
0
0
17
0
0
14
0
0
17
0
0
17
0
0
14
0
0
14
0
0
12
0
0
16
0
0
16
0
0
14
0
0
14
0
0
14
0
0
14
0
0
14
0
0
14
0
0
14
0
0
14
0
0
14
0
0
14
0
0
14
0
0
14
0
0
14
0
0
14
0
0
14
0
0
14
0
0
17
0
0
17
0
0
18
0
2
18
0
2
18
0
2
14
0
0
16
0
0
14
0
0
14
0
0
14
0
0
14
0
0
14
0
0
14
0
0
14
1
1
16
0
0
16
0
0
16
0
0
14
0
0
16
0
0
14
1
1
17
0
0
17
0
0
17
0
0
17
0
0
17
0
0
17
0
0
17
0
0
17
0
0
17
0
0
14
0
0
14
0
0
12
0
0
16
0
0
16
0
0
14
0
0
14
0
0
14
0
0
14
0
0
14
0
0
14
0
0
14
0
0
14
0
0
14
0
0
14
0
0
14
0
0
14
0
0
14
0
0
14
0
0
14
0
0
14
0
0
14
0
0
17
0
0
18
0
2
18
0
2
17
0
0
17
0
0
16
0
0
14
0
0
14
0
0
14
0
0
14
0
0
14
0
0
14
0
0
14
1
1
16
0
0
16
0
0
16
0
0
16
0
0
16
0
0
14
1
1
17
0
0
17
0
0
17
0
0
17
0
0
17
0
0
17
0
0
17
0
0
17
0
0
14
0
0
14
0
0
14
0
0
13
0
2
16
0
0
16
0
0
14
0
0
14
0
0
14
0
0
14
0
0
14
0
0
14
0
0
16
0
0
16
0
0
16
0
0
16
0
0
16
0
0
16
0
0
16
0
0
16
0
0
14
0
0
14
0
0
14
0
0
17
0
0
17
0
0
18
0
2
18
0
2
17
0
0
16
0
0
14
0
0
14
0
0
14
0
0
14
0
0
14
0
0
14
0
0
14
1
1
16
0
0
16
0
0
16
0
0
16
0
0
16
0
0
14
1
1
14
0
0
17
0
0
17
0
0
17
0
0
17
0
0
17
0
0
17
0
0
17
0
0
14
0
0
14
0
0
14
0
0
13
0
2
16
0
0
16
0
0
14
0
0
14
0
0
14
0
0
14
0
0
14
0
0
14
0
0
16
0
0
14
0
0
14
0
0
14
0
0
14
0
0
14
0
0
14
0
0
16
0
0
14
0
0
14
0
0
14
0
0
14
0
0
17
0
0
17
0
0
18
0
2
17
0
0
16
0
0
14
0
0
14
0
0
14
0
0
14
0
0
14
0
0
14
0
0
14
1
1
14
0
0
14
0
0
14
0
0
14
0
0
14
0
0
14
1
1
17
0
0
17
0
0
17
0
0
17
0
0
17
0
0
17
0
0
17
0
0
17
0
0
17
0
0
14
0
0
14
0
0
13
0
2
16
0
0
16
0
0
14
0
0
14
0
0
14
0
0
14
1
1
14
1
1
14
1
1
16
0
0
14
1
1
14
1
1
14
1
1
14
0
0
14
0
0
14
0
0
16
0
0
14
0
0
14
0
0
14
0
0
14
0
0
17
0
0
17
0
0
17
0
0
17
0
0
16
0
0
14
0
0
14
0
0
14
0
0
14
0
0
14
0
0
14
0
0
14
1
1
14
1
1
14
1
1
14
1
1
14
1
1
14
1
1
17
1
1
17
0
0
17
0
0
17
0
0
17
0
0
17
0
0
17
0
0
14
0
0
14
0
0
17
0
0
14
0
0
14
0
0
14
0
0
16
0
0
16
0
0
14
0
0
14
0
0
14
0
0
14
1
1
16
0
0
16
0
0
16
0
0
16
0
0
16
0
0
16
1
0
14
0
0
14
0
0
14
0
0
16
0
0
16
0
0
16
0
0
16
0
0
16
0
0
16
0
0
16
0
0
16
0
0
16
0
0
16
0
0
14
0
0
14
0
0
14
0
0
14
0
0
14
0
0
14
0
0
14
0
0
14
0
0
14
0
0
14
0
0
17
0
0
17
0
0
17
0
0
17
0
0
17
0
0
17
0
0
17
0
0
17
0
0
17
0
0
14
0
0
14
0
0
14
0
0
14
0
0
14
0
0
14
0
0
16
0
0
16
0
0
14
0
0
14
0
0
14
0
0
14
1
1
16
0
0
16
0
0
16
0
0
16
0
0
16
0
0
14
1
1
14
0
0
14
0
0
14
0
0
14
0
0
14
0
0
14
0
0
14
0
0
14
0
0
14
0
0
14
0
0
14
0
0
14
0
0
16
0
0
14
0
0
14
0
0
14
0
0
14
0
0
14
0
0
14
0
0
14
0
0
14
0
0
14
0
0
17
0
0
17
0
0
17
0
0
17
0
0
17
0
0
17
0
0
17
0
0
17
0
0
17
0
0
17
0
0
17
0
0
14
0
0
14
0
0
14
0
0
14
0
0
14
0
0
16
0
0
16
0
0
14
0
0
14
0
0
14
0
0
14
1
1
16
0
0
16
0
0
16
0
0
16
0
0
16
0
0
14
1
1
14
0
0
14
0
0
14
0
0
14
0
0
14
0
0
14
0
0
14
0
0
14
0
0
14
0
0
14
0
0
14
0
0
14
0
0
16
0
0
14
0
0
14
0
0
14
0
0
14
0
0
14
0
0
14
0
0
14
0
0
14
0
0
14
0
0
17
0
0
17
0
0
17
0
0
17
0
0
17
0
0
17
0
0
17
0
0
17
0
0
17
0
0
17
0
0
17
0
0
14
0
0
14
0
0
14
0
0
14
0
0
14
0
0
16
0
0
16
0
0
14
0
0
14
0
0
14
0
0
14
1
1
16
0
0
16
0
0
16
0
0
16
0
0
16
0
0
14
1
1
14
0
0
14
0
0
14
0
0
14
0
0
14
0
0
14
0
0
14
0
0
14
0
0
14
0
0
14
0
0
14
0
0
14
0
0
16
0
0
14
0
0
14
0
0
14
0
0
14
0
0
14
0
0
14
0
0
14
0
0
14
0
0
14
0
0
14
0
0
17
0
0
17
0
0
17
0
0
17
0
0
18
0
2
18
0
2
18
0
2
17
0
0
17
0
0
17
0
0
17
0
0
14
0
0
14
0
0
14
0
0
14
0
0
16
0
0
16
0
0
14
0
0
14
0
0
14
0
0
14
1
1
14
0
0
14
0
0
14
0
0
14
0
0
14
0
0
14
1
1
14
0
0
14
0
0
14
0
0
14
0
0
14
0
0
14
0
0
14
0
0
14
0
0
14
0
0
14
0
0
14
0
0
16
0
0
16
0
0
16
0
0
16
0
0
16
0
0
14
0
0
14
0
0
14
0
0
14
0
0
14
0
0
14
0
0
14
0
0
14
0
0
17
0
0
17
0
0
17
0
0
17
0
0
18
0
2
18
0
2
17
0
0
17
0
0
17
0
0
14
0
0
14
0
0
14
0
0
14
0
0
14
0
0
16
0
0
16
0
0
14
0
0
14
0
0
14
0
0
14
1
1
14
1
1
14
1
1
14
1
1
14
1
1
14
1
1
14
1
1
14
0
0
14
0
0
14
0
0
14
0
0
14
0
0
14
0
0
14
0
0
14
0
0
14
0
0
14
0
0
14
0
0
16
0
0
14
0
0
16
0
0
16
0
0
16
0
0
14
0
0
14
0
0
14
0
0
14
0
0
14
0
0
14
0
0
14
0
0
14
0
0
17
0
0
17
0
0
17
0
0
17
0
0
17
0
0
18
0
2
17
0
0
17
0
0
17
0
0
17
0
0
17
0
0
14
0
0
14
0
0
14
0
0
16
0
0
16
0
0
14
0
0
14
0
0
14
0
0
14
0
0
14
0
0
14
0
0
14
0
0
14
0
0
14
0
0
14
0
0
14
0
0
14
0
0
14
0
0
14
0
0
14
0
0
14
0
0
14
0
0
14
0
0
14
0
0
14
0
0
14
0
0
16
0
0
14
0
0
16
0
0
14
0
0
16
0
0
14
0
0
14
0
0
14
0
0
14
0
0
14
0
0
14
0
0
17
0
0
17
0
0
17
0
0
17
0
0
17
0
0
17
0
0
17
0
0
18
0
2
17
0
0
17
0
0
17
0
0
17
0
0
14
0
0
14
0
0
14
0
0
14
0
0
16
0
0
16
0
0
14
0
0
14
0
0
14
0
0
14
0
0
14
0
0
14
0
0
14
0
0
14
0
0
14
0
0
14
0
0
14
0
0
14
0
0
14
0
0
14
0
0
14
0
0
14
0
0
14
0
0
14
0
0
14
0
0
14
0
0
14
0
0
16
0
0
14
0
0
14
0
0
14
0
0
16
0
0
16
0
0
16
0
0
16
0
0
14
0
0
14
0
0
14
0
0
14
0
0
14
0
0
14
0
0
14
0
0
17
0
0
17
0
0
17
0
0
17
0
0
17
0
0
17
0
0
17
0
0
17
0
0
17
0
0
17
0
0
17
0
0
14
0
0
16
0
0
16
0
0
14
0
0
14
0
0
14
0
0
14
0
0
14
0
0
14
0
0
14
0
0
14
0
0
14
0
0
14
0
0
14
0
0
14
0
0
14
0
0
14
0
0
14
0
0
14
0
0
14
0
0
14
0
0
14
0
0
14
0
0
14
0
0
16
0
0
16
0
0
16
0
0
16
0
0
16
0
0
14
0
0
14
0
0
16
0
0
14
0
0
14
0
0
14
0
0
14
0
0
14
0
0
14
0
0
14
0
0
14
0
0
17
0
0
17
0
0
17
0
0
17
0
0
17
0
0
17
0
0
17
0
0
17
0
0
14
0
0
14
0
0
14
0
0
16
0
0
16
0
0
14
0
0
14
0
0
14
0
0
14
0
0
14
0
0
14
0
0
14
0
0
14
0
0
14
0
0
14
0
0
14
0
0
14
0
0
14
0
0
14
0
0
14
0
0
14
0
0
14
0
0
14
0
0
14
0
0
14
0
0
14
0
0
14
0
0
14
0
0
14
0
0
14
0
0
14
0
0
14
0
0
14
0
0
16
0
0
14
0
0
14
0
0
14
0
0
14
0
0
14
0
0
14
0
0
14
0
0
14
0
0
17
0
0
17
0
0
17
0
0
17
0
0
17
0
0
17
0
0
17
0
0
17
0
0
14
0
0
14
0
0
14
0
0
16
0
0
16
0
0
14
0
0
14
0
0
14
0
0
14
0
0
14
0
0
14
0
0
14
0
0
14
0
0
14
0
0
14
0
0
14
0
0
14
0
0
14
0
0
14
0
0
14
0
0
14
0
0
14
0
0
14
0
0
14
0
0
14
0
0
14
0
0
14
0
0
14
0
0
14
0
0
14
0
0
14
0
0
14
0
0
14
0
0
16
0
0
14
0
0
14
0
0
14
0
0
14
0
0
14
0
0
17
0
0
14
0
0
14
0
0
17
0
0
17
0
0
17
0
0
17
0
0
18
18
1
18
18
1
17
0
0
17
0
0
17
0
0
17
0
0
14
0
0
16
0
0
16
0
0
14
0
0
14
0
0
14
0
0
14
0
0
14
0
0
14
0
0
14
0
0
14
0
0
14
0
0
14
0
0
14
0
0
14
0
0
14
0
0
14
0
0
14
0
0
14
0
0
14
0
0
14
0
0
14
0
0
14
0
0
14
0
0
14
0
0
14
0
0
14
0
0
14
0
0
14
0
0
14
0
0
14
0
0
16
0
0
14
0
0
14
0
0
14
0
0
14
0
0
17
0
0
17
0
0
17
0
0
17
0
0
17
0
0
17
0
0
17
0
0
18
18
1
18
18
1
18
18
1
17
0
0
17
0
0
17
0
0
17
0
0
17
0
0
16
0
0
16
0
0
14
0
0
14
0
0
14
0
0
14
0
0
14
0
0
14
0
0
14
0
0
14
0
0
14
0
0
14
0
0
14
0
0
14
0
0
14
0
0
14
0
0
14
0
0
14
0
0
14
0
0
14
0
0
14
0
0
14
0
0
14
0
0
14
0
0
14
0
0
14
0
0
14
0
0
14
0
0
14
0
0
14
0
0
16
0
0
14
0
0
14
0
0
14
0
0
14
0
0
14
0
0
17
0
0
14
0
0
17
0
0
17
0
0
17
0
0
17
0
0
18
18
1
18
18
1
17
0
0
17
0
0
17
0
0
17
0
0
14
0
0
17
0
0
16
0
0
16
0
0
14
0
0
14
0
0
14
0
0
14
0
0
14
0
0
14
0
0
14
0
0
14
0
0
14
0
0
14
0
0
14
0
0
14
0
0
14
0
0
14
0
0
14
0
0
14
0
0
14
0
0
14
0
0
14
0
0
14
0
0
14
0
0
14
0
0
14
0
0
14
0
0
14
0
0
14
0
0
14
0
0
14
0
0
16
0
0
14
0
0
14
0
0
14
0
0
14
0
0
14
0
0
14
0
0
17
0
0
17
0
0
17
0
0
17
0
0
17
0
0
17
0
0
17
0
0
17
0
0
17
0
0
17
0
0
17
0
0
17
0
0
17
0
0
16
0
0
16
0
0
14
0
0
14
0
0
14
0
0
14
0
0
14
0
0
14
0
0
14
0
0
14
0
0
14
0
0
14
0
0
14
0
0
14
0
0
14
0
0
14
0
0
14
0
0
14
0
0
14
0
0
14
1
1
16
1
0
14
1
1
14
1
1
14
0
0
14
0
0
14
0
0
14
0
0
14
0
0
14
0
0
14
0
0
16
0
0
14
0
0
14
0
0
14
0
0
14
0
0
14
0
0
14
0
0
17
0
0
17
0
0
17
0
0
17
0
0
17
0
0
17
0
0
17
0
0
17
0
0
17
0
0
17
0
0
17
0
0
17
0
0
17
0
0
16
0
0
16
0
0
14
0
0
14
0
0
14
0
0
14
0
0
14
0
0
14
0
0
14
0
0
14
0
0
14
0
0
14
0
0
14
0
0
14
0
0
14
0
0
14
0
0
14
0
0
14
0
0
14
1
1
14
1
1
16
0
0
16
0
0
14
1
1
14
0
0
14
0
0
14
0
0
14
0
0
14
0
0
14
0
0
14
0
0
16
0
0
14
0
0
14
0
0
14
0
0
14
0
0
14
0
0
17
0
0
17
0
0
17
0
0
17
0
0
17
0
0
17
0
0
17
0
0
17
0
0
17
0
0
17
0
0
17
0
0
17
0
0
17
0
0
17
0
0
16
0
0
16
0
0
14
0
0
14
0
0
14
0
0
14
0
0
14
0
0
14
0
0
14
0
0
14
0
0
14
0
0
14
0
0
14
0
0
14
0
0
14
0
0
14
0
0
14
1
1
14
1
1
16
1
0
16
0
0
16
0
0
16
0
0
14
1
1
14
0
0
14
0
0
14
0
0
16
0
0
16
0
0
16
0
0
16
0
0
16
0
0
16
0
0
16
0
0
16
0
0
16
0
0
16
0
0
16
0
0
16
0
0
16
0
0
16
0
0
16
0
0
16
0
0
16
0
0
16
0
0
16
0
0
16
0
0
16
0
0
16
0
0
16
0
0
16
0
0
16
0
0
16
0
0
14
0
0
14
0
0
14
0
0
14
0
0
14
0
0
14
0
0
14
0
0
14
0
0
14
0
0
14
0
0
14
0
0
14
0
0
14
0
0
14
0
0
14
1
1
16
0
0
16
0
0
16
0
0
16
0
0
16
0
0
16
0
0
16
0
0
16
0
0
16
0
0
16
0
0
16
0
0
16
0
0
16
0
0
16
0
0
16
0
0
16
0
0
16
0
0
16
0
0
16
0
0
16
0
0
16
0
0
16
0
0
16
0
0
16
0
0
16
0
0
16
0
0
16
0
0
16
0
0
16
0
0
16
0
0
16
0
0
16
0
0
16
0
0
16
0
0
16
0
0
14
0
0
14
0
0
14
0
0
14
0
0
14
0
0
14
0
0
14
0
0
14
0
0
14
0
0
14
0
0
14
0
0
14
0
0
14
0
0
14
0
0
14
1
1
16
0
0
14
0
0
16
1
0
16
0
0
16
0
0
16
0
0
16
0
0
16
0
0
16
0
0
16
0
0
16
0
0
14
0
0
14
0
0
14
0
0
14
0
0
14
0
0
14
0
0
14
0
0
14
0
0
17
0
0
17
0
0
17
0
0
17
0
0
17
0
0
17
0
0
17
0
0
17
0
0
17
0
0
17
0
0
17
0
0
14
0
0
14
0
0
17
0
0
14
0
0
14
0
0
14
0
0
14
0
0
14
0
0
14
0
0
14
0
0
14
0
0
14
0
0
14
0
0
14
0
0
14
0
0
14
0
0
14
0
0
14
0
0
14
0
0
14
1
1
16
0
0
14
0
0
14
1
1
16
0
0
16
0
0
16
1
0
14
0
0
14
0
0
14
0
0
16
0
0
16
0
0
14
0
0
14
0
0
16
1
0
16
1
0
16
1
0
16
1
0
16
1
0
16
1
0
16
1
0
17
0
0
17
0
0
17
0
0
17
0
0
17
0
0
17
0
0
14
0
0
14
0
0
17
0
0
17
0
0
14
0
0
14
0
0
14
0
0
14
0
0
14
0
0
14
0
0
14
0
0
14
0
0
14
0
0
14
0
0
14
0
0
14
0
0
14
0
0
14
0
0
14
0
0
14
0
0
14
0
0
14
0
0
14
0
0
14
1
1
16
0
0
16
0
0
16
1
0
16
1
0
16
1
0
16
1
0
14
0
0
14
0
0
14
0
0
16
0
0
16
0
0
16
0
0
16
0
0
16
1
0
16
0
0
16
0
0
16
0
0
16
0
0
16
0
0
16
1
0
17
0
0
17
0
0
17
0
0
17
0
0
17
0
0
17
0
0
17
0
0
17
0
0
17
0
0
14
0
0
14
0
0
14
0
0
14
0
0
14
0
0
14
0
0
14
0
0
14
0
0
14
0
0
14
0
0
14
0
0
14
0
0
14
0
0
14
0
0
14
0
0
14
0
0
14
0
0
14
0
0
14
0
0
14
0
0
14
1
1
14
0
0
14
0
0
14
0
0
16
0
0
16
0
0
14
1
1
14
0
0
14
0
0
14
0
0
16
0
0
16
0
0
16
0
0
16
0
0
16
0
0
16
0
0
16
0
0
16
0
0
16
0
0
16
0
0
16
1
0
17
0
0
17
0
0
17
0
0
17
0
0
17
0
0
17
0
0
14
0
0
17
0
0
17
0
0
17
0
0
14
0
0
14
0
0
14
0
0
14
0
0
14
0
0
14
0
0
14
0
0
14
0
0
14
0
0
14
0
0
14
0
0
14
0
0
14
0
0
14
0
0
14
0
0
14
0
0
14
0
0
14
0
0
14
0
0
14
1
1
14
1
1
14
1
1
14
1
1
14
1
1
14
1
1
14
1
1
14
0
0
14
0
0
14
0
0
16
0
0
16
0
0
14
0
0
14
0
0
14
1
1
14
1
1
14
1
1
16
1
0
16
1
0
16
1
0
16
1
0
17
0
0
17
0
0
17
0
0
17
0
0
17
0
0
17
0
0
17
0
0
17
0
0
14
0
0
14
0
0
14
0
0
14
0
0
14
0
0
14
0
0
14
0
0
14
0
0
14
0
0
14
0
0
14
0
0
14
0
0
14
0
0
14
0
0
14
0
0
14
0
0
14
0
0
14
0
0
14
0
0
14
0
0
14
0
0
14
0
0
14
0
0
14
0
0
14
0
0
14
0
0
14
0
0
14
0
0
14
0
0
14
0
0
14
0
0
16
0
0
16
0
0
14
0
0
14
0
0
14
0
0
14
0
0
14
0
0
14
0
0
14
0
0
17
0
0
17
0
0
17
0
0
17
0
0
17
0
0
17
0
0
17
0
0
17
0
0
17
0
0
14
0
0
14
0
0
14
0
0
14
0
0
14
0
0
14
0
0
14
0
0
14
0
0
14
0
0
14
0
0
14
0
0
14
0
0
14
0
0
14
0
0
14
0
0
14
0
0
14
0
0
14
0
0
14
0
0
14
0
0
14
0
0
14
0
0
14
0
0
14
0
0
14
0
0
14
0
0
14
0
0
14
0
0
14
0
0
14
0
0
14
0
0
14
0
0
16
0
0
16
0
0
14
0
0
14
0
0
14
0
0
14
0
0
14
0
0
14
0
0
14
0
0
17
0
0
17
0
0
17
0
0
17
0
0
17
0
0
17
0
0
17
0
0
17
0
0
17
0
0
14
0
0
14
0
0
14
0
0
14
0
0
14
0
0
14
0
0
14
0
0
14
0
0
14
0
0
14
0
0
14
0
0
14
0
0
14
0
0
14
0
0
14
0
0
14
0
0
14
0
0
14
0
0
14
0
0
14
0
0
14
0
0
14
0
0
14
0
0
14
0
0
14
0
0
14
0
0
14
0
0
14
0
0
14
0
0
14
0
0
14
0
0
14
0
0
16
0
0
16
0
0
14
0
0
14
0
0
14
0
0
14
0
0
14
0
0
17
0
0
17
0
0
17
0
0
17
0
0
17
0
0
17
0
0
17
0
0
17
0
0
17
0
0
17
0
0
17
0
0
14
0
0
14
0
0
14
0
0
14
0
0
14
0
0
14
0
0
14
0
0
14
0
0
14
0
0
14
0
0
14
0
0
14
0
0
14
0
0
14
0
0
14
0
0
14
0
0
14
0
0
14
0
0
14
0
0
14
0
0
14
0
0
14
0
0
14
0
0
14
0
0
14
0
0
14
0
0
14
0
0
14
0
0
14
0
0
14
0
0
14
0
0
14
0
0
16
0
0
16
0
0
14
0
0
14
0
0
14
0
0
17
0
0
17
0
0
17
1
1
17
1
1
17
1
1
17
1
1
17
1
1
17
1
1
14
1
1
17
0
0
17
0
0
17
0
0
14
0
0
14
0
0
14
0
0
14
0
0
14
0
0
14
0
0
14
0
0
14
0
0
14
0
0
14
0
0
14
0
0
14
0
0
14
0
0
14
0
0
14
0
0
14
0
0
14
0
0
14
0
0
14
0
0
14
0
0
14
0
0
14
0
0
14
0
0
14
0
0
14
0
0
14
0
0
14
0
0
14
0
0
14
0
0
14
0
0
14
0
0
14
0
0
14
0
0
16
0
0
16
0
0
17
0
0
14
0
0
14
0
0
17
0
0
14
0
0
17
1
1
16
0
0
16
0
0
16
0
0
16
0
0
17
0
0
17
1
1
17
0
0
17
0
0
17
0
0
14
0
0
14
0
0
14
0
0
14
0
0
14
0
0
14
0
0
14
0
0
14
0
0
14
0
0
14
0
0
14
0
0
14
0
0
14
0
0
14
0
0
14
0
0
14
0
0
14
0
0
14
0
0
14
0
0
14
0
0
14
0
0
14
0
0
14
0
0
14
0
0
14
0
0
14
0
0
14
0
0
14
0
0
14
0
0
14
0
0
14
0
0
14
0
0
14
0
0
16
0
0
16
0
0
17
0
0
17
0
0
17
0
0
17
0
0
14
0
0
17
1
1
16
0
0
16
0
0
16
0
0
16
0
0
17
0
0
17
1
1
17
0
0
17
0
0
17
0
0
17
0
0
14
0
0
14
0
0
14
0
0
14
0
0
14
0
0
14
0
0
14
0
0
14
0
0
14
0
0
14
0
0
14
0
0
14
0
0
14
0
0
14
0
0
14
0
0
14
0
0
14
0
0
14
0
0
14
0
0
14
0
0
14
0
0
14
0
0
14
0
0
14
0
0
14
0
0
14
0
0
14
0
0
14
0
0
14
0
0
14
0
0
14
0
0
14
0
0
16
0
0
16
0
0
17
0
0
17
0
0
17
0
0
17
0
0
14
0
0
14
1
1
16
0
0
16
0
0
16
0
0
17
0
0
17
0
0
17
1
1
17
0
0
17
0
0
17
0
0
17
0
0
14
0
0
14
0
0
14
0
0
14
0
0
14
0
0
14
0
0
14
0
0
14
0
0
14
0
0
14
0
0
14
0
0
14
0
0
14
0
0
14
0
0
14
0
0
14
0
0
14
0
0
14
0
0
14
0
0
14
0
0
14
0
0
14
0
0
14
0
0
14
0
0
14
0
0
17
0
0
14
0
0
14
0
0
14
0
0
14
0
0
14
0
0
14
0
0
16
0
0
16
0
0
17
0
0
17
0
0
17
0
0
17
0
0
17
0
0
17
1
1
16
0
0
16
0
0
17
0
0
17
0
0
14
0
0
14
1
1
14
0
0
17
0
0
17
0
0
17
0
0
14
0
0
14
0
0
14
0
0
14
0
0
14
0
0
14
0
0
14
0
0
14
0
0
14
0
0
14
0
0
14
0
0
14
0
0
14
0
0
14
0
0
14
0
0
14
0
0
14
0
0
14
0
0
14
0
0
14
0
0
14
0
0
14
0
0
14
0
0
14
0
0
17
0
0
17
0
0
17
0
0
17
0
0
17
0
0
17
0
0
17
0
0
17
0
0
16
0
0
16
0
0
14
0
0
17
0
0
17
0
0
17
0
0
17
0
0
17
1
1
17
0
0
16
0
0
17
0
0
17
0
0
17
0
0
14
1
1
14
0
0
17
0
0
14
0
0
17
0
0
14
0
0
14
0
0
14
0
0
14
0
0
14
0
0
14
0
0
14
0
0
14
0
0
14
0
0
14
0
0
14
0
0
14
0
0
14
0
0
14
0
0
14
0
0
14
0
0
14
0
0
14
0
0
14
0
0
14
0
0
14
0
0
14
0
0
14
0
0
14
0
0
14
0
0
17
0
0
17
0
0
17
0
0
17
0
0
17
0
0
17
0
0
17
0
0
16
0
0
16
0
0
17
0
0
17
0
0
17
0
0
17
0
0
17
0
0
17
1
1
17
1
1
17
1
1
16
0
0
17
1
1
17
1
1
14
1
1
14
0
0
14
0
0
14
0
0
14
0
0
14
0
0
14
0
0
14
0
0
14
0
0
14
0
0
14
0
0
14
0
0
14
0
0
14
0
0
14
0
0
14
0
0
14
0
0
14
0
0
14
0
0
14
0
0
14
0
0
14
0
0
14
0
0
14
0
0
14
0
0
14
0
0
14
0
0
14
0
0
14
0
0
14
0
0
17
0
0
14
0
0
17
0
0
17
0
0
17
0
0
17
0
0
17
0
0
16
0
0
16
0
0
17
0
0
17
0
0
17
0
0
17
0
0
17
0
0
17
0
0
17
0
0
17
0
0
16
0
0
16
0
0
17
0
0
14
0
0
14
0
0
14
0
0
14
0
0
14
0
0
14
0
0
14
0
0
14
0
0
14
0
0
14
0
0
14
0
0
14
0
0
14
0
0
14
0
0
14
0
0
14
0
0
14
0
0
14
0
0
14
0
0
14
0
0
14
0
0
14
0
0
14
0
0
14
0
0
14
0
0
14
0
0
14
0
0
14
0
0
14
0
0
14
0
0
17
0
0
17
0
0
17
0
0
17
0
0
17
0
0
17
0
0
17
0
0
16
0
0
16
0
0
16
0
0
16
0
0
16
0
0
16
0
0
16
0
0
16
0
0
16
0
0
16
0
0
16
0
0
16
0
0
17
0
0
14
0
0
14
0
0
14
0
0
14
0
0
14
0
0
14
0
0
14
0
0
14
0
0
14
0
0
14
0
0
14
0
0
14
0
0
14
0
0
14
0
0
14
0
0
14
0
0
14
0
0
14
0
0
14
0
0
14
0
0
14
0
0
14
0
0
14
0
0
14
0
0
14
0
0
14
0
0
14
0
0
14
0
0
14
0
0
17
0
0
17
0
0
17
0
0
17
0
0
17
0
0
17
0
0
17
0
0
17
0
0
16
0
0
16
0
0
16
0
0
16
0
0
16
0
0
16
0
0
16
0
0
16
0
0
16
0
0
16
0
0
16
0
0
16
0
0
14
0
0
14
0
0
14
0
0
14
0
0
14
0
0
14
0
0
14
0
0
14
0
0
14
0
0
14
0
0
14
0
0
14
0
0
14
0
0
14
0
0
14
0
0
